0	198	91	137	116	110	106	36	198	88	46	
176	0	102	144	149	51	161	146	57	170	34	
93	93	0	40	195	135	46	60	125	176	71	
73	143	185	0	168	162	21	65	170	23	159	
100	43	107	114	0	54	134	117	44	44	36	
58	82	140	87	122	0	95	129	200	117	172	
189	93	177	122	97	150	0	42	59	45	34	
162	186	179	89	159	159	135	0	59	134	180	
57	30	82	160	81	90	99	85	0	176	40	
186	76	114	184	103	90	83	91	184	0	141	
177	155	95	159	103	97	38	55	158	141	0	
